12 28
1 2 0
1 3 1
1 4 0
1 5 0
1 6 0
1 7 1
1 8 1
1 9 0
1 10 1
1 11 0
1 12 0
2 3 0
2 4 1
2 5 0
2 6 1
2 7 0
2 8 0
2 9 1
2 10 1
2 11 1
2 12 1
3 4 1
3 5 1
3 6 1
3 7 1
3 8 1
3 9 0
3 10 0
3 11 1
3 12 0
4 5 0
4 6 0
4 7 1
4 8 1
4 9 1
4 10 0
4 11 1
4 12 0
5 6 1
5 7 0
5 8 1
5 9 0
5 10 0
5 11 1
5 12 0
6 7 1
6 8 0
6 9 1
6 10 0
6 11 0
6 12 1
7 8 0
7 9 1
7 10 0
7 11 0
7 12 0
8 9 0
8 10 0
8 11 0
8 12 0
9 10 1
9 11 0
9 12 0
10 11 0
10 12 0
11 12 0
